<?xml version="1.0" encoding="UTF-8"?><osil xmlns="os.optimizationservices.org" xmlns:xsi="http://www.w3.org/2001/XMLSchema-instance" xsi:schemaLocation="os.optimizationservices.org http://www.optimizationservices.org/schemas/2.0/OSiL.xsd"><instanceHeader><name>ex1221</name></instanceHeader><instanceData><variables numberOfVariables="5"><var name="x1" ub="10"/><var name="x2" ub="10"/><var name="b3" type="B" ub="1"/><var name="b4" type="B" ub="1"/><var name="b5" type="B" ub="1"/></variables><objectives><obj maxOrMin="min" name="defObj_objvar" numberOfObjCoef="5"><coef idx="0">2</coef><coef idx="1">3</coef><coef idx="2">1.5</coef><coef idx="3">2</coef><coef idx="4">-.5</coef></obj></objectives><constraints numberOfConstraints="5"><con name="e2" lb="1.25" ub="1.25"/><con name="e3" lb="3" ub="3"/><con name="e4" ub="1.6"/><con name="e5" ub="3"/><con name="e6" ub="0"/></constraints><linearConstraintCoefficients numberOfValues="9"><start><el mult="3" incr="1">0</el><el>4</el><el>6</el><el>9</el></start><colIdx><el>2</el><el>3</el><el>0</el><el>2</el><el>1</el><el>3</el><el mult="3" incr="1">2</el></colIdx><value><el>1</el><el>1.5</el><el mult="2">1</el><el>1.333</el><el>1</el><el mult="2">-1</el><el>1</el></value></linearConstraintCoefficients><quadraticCoefficients numberOfQuadraticTerms="1"><qTerm idx="0" idxOne="0" idxTwo="0" coef="1"/></quadraticCoefficients><nonlinearExpressions numberOfNonlinearExpressions="1"><nl idx="1"><power><variable idx="1"/><number value="1.5"/></power></nl></nonlinearExpressions></instanceData></osil>